# Solution for model GasLib-40
# Objective value = 1.1368565495331517e+01
loadshed[innode_1] 0
loadshed[innode_2] 0
loadshed[innode_3] 0
loadshed[innode_4] 0
loadshed[innode_5] 0
loadshed[innode_6] 0
loadshed[innode_7] 0
loadshed[innode_8] 0
loadshed[source_1] -2.1471380499878756e-01
loadshed[source_2] -0.0444281357214138
loadshed[source_3] 3.3105379801548662e-01
loadshed[sink_1] 0
loadshed[sink_2] 0
loadshed[sink_3] 0
loadshed[sink_4] 0
loadshed[sink_5] 0
loadshed[sink_6] 0
loadshed[sink_7] 0
loadshed[sink_8] 0
loadshed[sink_9] 0
loadshed[sink_10] 0
loadshed[sink_11] 0
loadshed[sink_12] 6.9514795385466588e-01
loadshed[sink_13] 0
loadshed[sink_14] 0
loadshed[sink_15] 0
loadshed[sink_16] 0
loadshed[sink_17] 0
loadshed[sink_18] 0
loadshed[sink_19] 0
loadshed[sink_20] 0
loadshed[sink_21] 0
loadshed[sink_22] 0
loadshed[sink_23] 0
loadshed[sink_24] 0
loadshed[sink_25] 0
loadshed[sink_26] 0
loadshed[sink_27] 0
loadshed[sink_28] 0
loadshed[sink_29] 0
flow[source_1,sink_3] 1.9203444285275970e+02
flow[innode_1,sink_16] 1.6354166666666970e+01
flow[innode_6,sink_13] 8.7252757765448852e+00
flow[sink_13,sink_14] -7.6288908901217827e+00
flow[sink_14,sink_10] -2.3983057556788481e+01
flow[sink_25,sink_26] 1.7176001304804680e+02
flow[sink_26,sink_9] 1.3581893450466859e+02
flow[sink_9,sink_18] 1.1946476783800192e+02
flow[sink_26,sink_4] 1.9586911876712065e+01
flow[sink_4,sink_20] 3.2327452100455503e+00
flow[sink_18,sink_6] 1.0311060117133525e+02
flow[sink_25,innode_8] -1.5932610951942331e+02
flow[sink_6,sink_7] 5.4048101171335162e+01
flow[sink_6,sink_22] 3.2708333333333641e+01
flow[sink_7,sink_24] 3.7693934504668491e+01
flow[sink_22,sink_1] 1.6354166666666970e+01
flow[sink_24,sink_21] 2.1339767838001819e+01
flow[sink_21,sink_12] 4.9856011713351522e+00
flow[sink_7,sink_5] 0
flow[sink_5,sink_17] -1.6354166666667197e+01
flow[sink_17,sink_4] 0
flow[sink_17,sink_8] -3.2708333333333840e+01
flow[sink_3,sink_23] 16.3541666666697
flow[sink_8,sink_20] -4.9062500000000512e+01
flow[sink_25,sink_20] 6.2183921456621476e+01
flow[sink_25,sink_15] -9.9697267428457010e+01
flow[sink_15,sink_29] -6.4478922116067977e+01
flow[sink_29,sink_28] 1.6354166666667879e+01
flow[sink_29,sink_2] 6.7926678645722376e+01
flow[sink_2,sink_15] 5.1572511979055712e+01
flow[sink_29,innode_7] -1.6511393409512490e+02
flow[innode_4,sink_19] 4.0436714918555296e+01
flow[sink_19,innode_3] 7.3045557556788864e+01
flow[innode_4,innode_5] 6.5317175971565860e+01
flow[sink_27,innode_5] -6.5317175971565860e+01
flow[sink_27,sink_19] 4.8963009304899188e+01
flow[sink_10,sink_11] 3.2708333333333641e+01
flow[sink_10,innode_2] 0
flow[sink_10,innode_3] -7.3045557556788864e+01
flow[innode_6,sink_25] -8.7252757765448852e+00
flow[sink_11,innode_1] 1.6354166666666970e+01
flow[sink_19,innode_2] 0
flow[source_3,innode_4] 1.0575389089012116e+02
flow[source_2,innode_7] 1.6511393409512490e+02
flow[sink_3,innode_8] 1.5932610951942331e+02
pressure[innode_1] 75.172653088588
pressure[innode_2] 7.9375055645312472e+01
pressure[innode_3] 7.9213304529615044e+01
pressure[innode_4] 81.01325
pressure[innode_5] 80.9683214021814
pressure[innode_6] 7.4224437886611142e+01
pressure[innode_7] 81.01325
pressure[innode_8] 8.0371352217359387e+01
pressure[source_1] 81.01325
pressure[source_2] 81.01325
pressure[source_3] 81.01325
pressure[sink_1] 4.4821338238683772e+01
pressure[sink_2] 7.4876439666046437e+01
pressure[sink_3] 8.0371352217359387e+01
pressure[sink_4] 5.9637150367502947e+01
pressure[sink_5] 53.5285772805027
pressure[sink_6] 4.6922415849071143e+01
pressure[sink_7] 4.6180464251163137e+01
pressure[sink_8] 55.9810148766846
pressure[sink_9] 5.3998367267574125e+01
pressure[sink_10] 7.5324354396191552e+01
pressure[sink_11] 75.172653088588
pressure[sink_12] 1.0132499999999993e+00
pressure[sink_13] 7.4176336899384083e+01
pressure[sink_14] 7.4189989449469778e+01
pressure[sink_15] 7.4708066780833377e+01
pressure[sink_16] 7.4151003253770327e+01
pressure[sink_17] 5.4746844485857451e+01
pressure[sink_18] 4.9675775900950484e+01
pressure[sink_19] 7.9375055645312472e+01
pressure[sink_20] 5.9399981147449154e+01
pressure[sink_21] 2.7873997597760143e+00
pressure[sink_22] 4.5885107381038779e+01
pressure[sink_23] 80.2066342056996
pressure[sink_24] 3.0237178615729476e+00
pressure[sink_25] 7.4224437886611142e+01
pressure[sink_26] 6.2127481036699088e+01
pressure[sink_27] 8.0426309534781183e+01
pressure[sink_28] 76.3018168224319
pressure[sink_29] 7.6597099096049078e+01
interdiction[source_1,sink_3] 0
interdiction[innode_1,sink_16] 0
interdiction[innode_6,sink_13] 0
interdiction[sink_13,sink_14] 0
interdiction[sink_14,sink_10] 0
interdiction[sink_25,sink_26] 0
interdiction[sink_26,sink_9] 0
interdiction[sink_9,sink_18] 0
interdiction[sink_26,sink_4] 0
interdiction[sink_4,sink_20] 0
interdiction[sink_18,sink_6] 0
interdiction[sink_25,innode_8] 0
interdiction[sink_6,sink_7] 0
interdiction[sink_6,sink_22] 0
interdiction[sink_7,sink_24] 0
interdiction[sink_22,sink_1] 0
interdiction[sink_24,sink_21] 0
interdiction[sink_21,sink_12] 0
interdiction[sink_7,sink_5] 1
interdiction[sink_5,sink_17] 0
interdiction[sink_17,sink_4] 1
interdiction[sink_17,sink_8] 0
interdiction[sink_3,sink_23] 0
interdiction[sink_8,sink_20] 0
interdiction[sink_25,sink_20] 0
interdiction[sink_25,sink_15] 0
interdiction[sink_15,sink_29] 0
interdiction[sink_29,sink_28] 0
interdiction[sink_29,sink_2] 0
interdiction[sink_2,sink_15] 0
interdiction[sink_29,innode_7] 0
interdiction[innode_4,sink_19] 0
interdiction[sink_19,innode_3] 0
interdiction[innode_4,innode_5] 0
interdiction[sink_27,innode_5] 0
interdiction[sink_27,sink_19] 0
interdiction[sink_10,sink_11] 0
interdiction[sink_10,innode_2] 1
interdiction[sink_10,innode_3] 0
interdiction[innode_6,sink_25] 0
interdiction[sink_11,innode_1] 0
interdiction[sink_19,innode_2] 0
interdiction[source_3,innode_4] 0
interdiction[source_2,innode_7] 0
interdiction[sink_3,innode_8] 0
WCcheckFlow[source_1,sink_3] 39
WCcheckFlow[innode_1,sink_16] 1
WCcheckFlow[innode_6,sink_13] 13
WCcheckFlow[sink_13,sink_14] 12
WCcheckFlow[sink_14,sink_10] 11
WCcheckFlow[sink_25,sink_26] 15
WCcheckFlow[sink_26,sink_9] 9
WCcheckFlow[sink_9,sink_18] 8
WCcheckFlow[sink_26,sink_4] 5
WCcheckFlow[sink_4,sink_20] 4
WCcheckFlow[sink_18,sink_6] 7
WCcheckFlow[sink_25,innode_8] -36
WCcheckFlow[sink_6,sink_7] 4
WCcheckFlow[sink_6,sink_22] 2
WCcheckFlow[sink_7,sink_24] 3
WCcheckFlow[sink_22,sink_1] 1
WCcheckFlow[sink_24,sink_21] 2
WCcheckFlow[sink_21,sink_12] 1
WCcheckFlow[sink_7,sink_5] 0
WCcheckFlow[sink_5,sink_17] -1
WCcheckFlow[sink_17,sink_4] 0
WCcheckFlow[sink_17,sink_8] -2
WCcheckFlow[sink_3,sink_23] 1
WCcheckFlow[sink_8,sink_20] -3
WCcheckFlow[sink_25,sink_20] 0
WCcheckFlow[sink_25,sink_15] 6
WCcheckFlow[sink_15,sink_29] 5
WCcheckFlow[sink_29,sink_28] 1
WCcheckFlow[sink_29,sink_2] 1
WCcheckFlow[sink_2,sink_15] 0
WCcheckFlow[sink_29,innode_7] 2
WCcheckFlow[innode_4,sink_19] -4
WCcheckFlow[sink_19,innode_3] -6
WCcheckFlow[innode_4,innode_5] 2
WCcheckFlow[sink_27,innode_5] -1
WCcheckFlow[sink_27,sink_19] 0
WCcheckFlow[sink_10,sink_11] 3
WCcheckFlow[sink_10,innode_2] 0
WCcheckFlow[sink_10,innode_3] 7
WCcheckFlow[innode_6,sink_25] -14
WCcheckFlow[sink_11,innode_1] 2
WCcheckFlow[sink_19,innode_2] 1
WCcheckFlow[source_3,innode_4] -1
WCcheckFlow[source_2,innode_7] -1
WCcheckFlow[sink_3,innode_8] 37
